c Created with the Wolfram Language : www.wolfram.com
c 
p edge 60 342
e 3 4
e 3 5
e 4 6
e 5 6
e 6 7
e 3 9
e 5 9
e 7 12
e 8 12
e 2 13
e 5 13
e 7 13
e 7 14
e 9 14
e 10 14
e 2 15
e 7 15
e 9 15
e 13 16
e 1 17
e 8 17
e 14 17
e 15 17
e 3 18
e 5 18
e 12 18
e 15 18
e 17 18
e 1 19
e 3 19
e 9 19
e 10 19
e 16 19
e 1 20
e 9 20
e 13 20
e 14 20
e 9 21
e 15 21
e 4 22
e 6 22
e 11 22
e 13 22
e 17 22
e 2 23
e 9 23
e 16 23
e 17 23
e 22 23
e 3 24
e 17 24
e 20 24
e 21 24
e 1 25
e 2 25
e 8 25
e 11 25
e 13 25
e 16 25
e 1 26
e 2 26
e 14 26
e 25 26
e 1 27
e 8 27
e 11 27
e 12 27
e 15 27
e 18 27
e 1 28
e 9 28
e 16 28
e 22 28
e 23 28
e 6 29
e 8 29
e 11 29
e 13 29
e 14 29
e 17 29
e 19 29
e 21 29
e 22 29
e 24 29
e 27 29
e 4 30
e 10 30
e 16 30
e 4 31
e 5 31
e 6 31
e 7 31
e 9 31
e 22 31
e 8 32
e 10 32
e 14 32
e 20 32
e 25 32
e 26 32
e 29 32
e 8 33
e 18 33
e 21 33
e 25 33
e 27 33
e 30 33
e 31 33
e 1 34
e 5 34
e 7 34
e 10 34
e 12 34
e 17 34
e 22 34
e 28 34
e 2 35
e 4 35
e 11 35
e 16 35
e 17 35
e 18 35
e 28 35
e 31 35
e 7 36
e 17 36
e 24 36
e 29 36
e 32 36
e 35 36
e 1 37
e 3 37
e 5 37
e 15 37
e 18 37
e 20 37
e 22 37
e 26 37
e 30 37
e 34 37
e 11 38
e 16 38
e 20 38
e 21 38
e 26 38
e 31 38
e 36 38
e 2 39
e 4 39
e 17 39
e 19 39
e 22 39
e 31 39
e 34 39
e 5 40
e 15 40
e 16 40
e 20 40
e 23 40
e 27 40
e 33 40
e 37 40
e 3 41
e 4 41
e 22 41
e 29 41
e 38 41
e 2 42
e 4 42
e 7 42
e 10 42
e 11 42
e 13 42
e 20 42
e 22 42
e 27 42
e 35 42
e 36 42
e 6 43
e 7 43
e 9 43
e 13 43
e 26 43
e 28 43
e 31 43
e 38 43
e 39 43
e 41 43
e 2 44
e 21 44
e 23 44
e 24 44
e 27 44
e 32 44
e 6 45
e 8 45
e 11 45
e 13 45
e 27 45
e 28 45
e 30 45
e 39 45
e 1 46
e 3 46
e 6 46
e 11 46
e 29 46
e 38 46
e 8 47
e 18 47
e 27 47
e 31 47
e 35 47
e 41 47
e 43 47
e 5 48
e 10 48
e 21 48
e 26 48
e 28 48
e 31 48
e 33 48
e 37 48
e 42 48
e 2 49
e 4 49
e 5 49
e 8 49
e 9 49
e 17 49
e 25 49
e 27 49
e 37 49
e 47 49
e 48 49
e 2 50
e 3 50
e 4 50
e 6 50
e 16 50
e 18 50
e 21 50
e 23 50
e 25 50
e 29 50
e 33 50
e 35 50
e 45 50
e 7 51
e 13 51
e 21 51
e 30 51
e 37 51
e 44 51
e 48 51
e 50 51
e 10 52
e 15 52
e 20 52
e 25 52
e 31 52
e 36 52
e 38 52
e 44 52
e 45 52
e 11 53
e 12 53
e 13 53
e 20 53
e 27 53
e 30 53
e 33 53
e 41 53
e 47 53
e 48 53
e 52 53
e 2 54
e 6 54
e 7 54
e 14 54
e 18 54
e 22 54
e 23 54
e 33 54
e 38 54
e 39 54
e 48 54
e 49 54
e 1 55
e 3 55
e 9 55
e 13 55
e 14 55
e 18 55
e 19 55
e 24 55
e 25 55
e 31 55
e 33 55
e 37 55
e 39 55
e 44 55
e 52 55
e 10 56
e 14 56
e 23 56
e 28 56
e 31 56
e 42 56
e 43 56
e 1 57
e 8 57
e 23 57
e 31 57
e 38 57
e 53 57
e 10 58
e 12 58
e 21 58
e 22 58
e 34 58
e 37 58
e 44 58
e 50 58
e 53 58
e 2 59
e 4 59
e 12 59
e 35 59
e 43 59
e 46 59
e 48 59
e 10 60
e 11 60
e 16 60
e 17 60
e 20 60
e 25 60
e 28 60
e 46 60
e 57 60
e 59 60
